33D32945 STP File, STP Format Version 1.0
SECTION Comment
    Name    "Traversed Topology"
    Creator "Ruben Eschauzier"
    Problem "SAP"
    Remark  "Traversed topology during Link Traversal-based Query Processing"
    END

SECTION Graph 
Nodes 1
Arcs 0
END

SECTION Terminals
Terminals 1
Root 1
T 1
END

EOF